p cnf 60 187
1 2 3 4 0
5 6 7 8 0
9 10 11 12 0
13 14 15 16 0
17 18 19 20 0
21 22 23 24 0
25 26 27 28 0
29 30 31 32 0
33 34 35 36 0
37 38 39 40 0
41 42 43 44 0
45 46 47 48 0
49 50 51 52 0
53 54 55 56 0
57 58 59 60 0
-1 -17 0
-2 -18 0
-3 -19 0
-4 -20 0
-1 -29 0
-2 -30 0
-3 -31 0
-4 -32 0
-1 -37 0
-2 -38 0
-3 -39 0
-4 -40 0
-1 -41 0
-2 -42 0
-3 -43 0
-4 -44 0
-1 -57 0
-2 -58 0
-3 -59 0
-4 -60 0
-5 -17 0
-6 -18 0
-7 -19 0
-8 -20 0
-5 -29 0
-6 -30 0
-7 -31 0
-8 -32 0
-5 -37 0
-6 -38 0
-7 -39 0
-8 -40 0
-5 -45 0
-6 -46 0
-7 -47 0
-8 -48 0
-5 -53 0
-6 -54 0
-7 -55 0
-8 -56 0
-5 -57 0
-6 -58 0
-7 -59 0
-8 -60 0
-9 -13 0
-10 -14 0
-11 -15 0
-12 -16 0
-9 -17 0
-10 -18 0
-11 -19 0
-12 -20 0
-9 -37 0
-10 -38 0
-11 -39 0
-12 -40 0
-9 -41 0
-10 -42 0
-11 -43 0
-12 -44 0
-9 -53 0
-10 -54 0
-11 -55 0
-12 -56 0
-13 -17 0
-14 -18 0
-15 -19 0
-16 -20 0
-13 -33 0
-14 -34 0
-15 -35 0
-16 -36 0
-13 -37 0
-14 -38 0
-15 -39 0
-16 -40 0
-13 -41 0
-14 -42 0
-15 -43 0
-16 -44 0
-13 -49 0
-14 -50 0
-15 -51 0
-16 -52 0
-13 -53 0
-14 -54 0
-15 -55 0
-16 -56 0
-13 -57 0
-14 -58 0
-15 -59 0
-16 -60 0
-17 -25 0
-18 -26 0
-19 -27 0
-20 -28 0
-17 -29 0
-18 -30 0
-19 -31 0
-20 -32 0
-17 -33 0
-18 -34 0
-19 -35 0
-20 -36 0
-17 -49 0
-18 -50 0
-19 -51 0
-20 -52 0
-21 -45 0
-22 -46 0
-23 -47 0
-24 -48 0
-25 -41 0
-26 -42 0
-27 -43 0
-28 -44 0
-25 -53 0
-26 -54 0
-27 -55 0
-28 -56 0
-29 -33 0
-30 -34 0
-31 -35 0
-32 -36 0
-29 -37 0
-30 -38 0
-31 -39 0
-32 -40 0
-29 -41 0
-30 -42 0
-31 -43 0
-32 -44 0
-29 -53 0
-30 -54 0
-31 -55 0
-32 -56 0
-29 -57 0
-30 -58 0
-31 -59 0
-32 -60 0
-33 -41 0
-34 -42 0
-35 -43 0
-36 -44 0
-33 -57 0
-34 -58 0
-35 -59 0
-36 -60 0
-37 -49 0
-38 -50 0
-39 -51 0
-40 -52 0
-37 -53 0
-38 -54 0
-39 -55 0
-40 -56 0
-37 -57 0
-38 -58 0
-39 -59 0
-40 -60 0
-45 -57 0
-46 -58 0
-47 -59 0
-48 -60 0
-49 -53 0
-50 -54 0
-51 -55 0
-52 -56 0
-49 -57 0
-50 -58 0
-51 -59 0
-52 -60 0
